50 106
0 2
0 27
0 34
0 41
1 3
1 7
1 13
1 20
1 32
1 44
2 3
2 7
2 10
2 21
3 13
3 17
3 27
3 36
3 45
4 5
4 11
4 29
4 41
4 48
4 49
5 14
5 28
5 30
5 47
5 48
6 35
6 43
6 49
7 9
7 25
8 24
8 25
8 35
8 36
8 37
8 38
8 41
9 39
9 43
11 23
11 24
11 27
11 28
12 20
12 32
12 45
12 46
13 30
13 43
14 36
14 44
15 37
15 39
15 42
15 44
16 47
16 48
17 27
17 37
17 41
19 24
19 32
19 43
20 31
21 22
21 26
21 45
22 36
22 39
22 45
23 38
23 48
24 38
25 38
26 47
27 41
29 44
30 40
30 42
30 48
31 39
31 49
32 43
33 37
33 40
34 47
35 45
36 39
36 41
36 48
36 49
38 41
38 43
38 45
38 49
39 49
40 44
40 45
42 43
44 48
46 48
